int NumberPatients = 132
int NumberOfRooms = 3
int NumberSurgeons = 17
int NumberOfDays = 6
Duration = [103,98,72,97,217,117,66,66,120,122,68,32,210,317,66,201,32,78,72,47,31,105,98,32,32,146,47,32,103,47,105,72,47,112,47,60,60,166,47,103,32,32,66,264,32,50,210,96,66,130,53,78,131,32,210,131,105,66,85,41,66,66,31,205,47,66,105,53,94,105,264,105,263,60,38,112,103,146,103,32,98,105,32,119,201,159,201,115,60,32,98,98,105,98,98,119,107,103,98,198,103,98,145,46,78,103,47,210,32,85,98,217,46,114,32,130,157,98,85,32,59,119,47,103,93,66,98,145,78,105,32,85];
Priority = [0,0,0,1,0,0,0,0,0,0,0,0,0,0,0,0,0,0,0,0,0,0,0,0,0,0,0,0,0,0,0,0,0,0,0,0,0,0,0,0,0,0,0,0,0,0,0,0,0,0,0,0,0,0,0,0,0,0,0,0,0,0,0,0,0,0,0,0,0,0,0,0,0,0,0,0,0,0,0,0,0,0,0,0,0,1,0,0,0,0,0,0,0,0,0,0,0,0,0,1,0,1,0,0,0,0,0,0,0,0,0,0,0,0,0,0,0,0,0,0,0,0,0,0,0,0,1,0,0,0,1,0];
Waiting = [220,50,375,141,65,32,108,144,191,176,37,134,59,81,417,72,74,150,261,158,49,158,37,128,113,35,171,144,151,121,137,128,410,57,196,113,106,289,52,186,38,87,23,141,176,45,186,270,396,214,24,205,178,78,50,494,24,85,165,37,24,45,59,228,102,150,59,410,123,85,249,24,25,199,25,59,178,45,305,51,73,161,228,23,72,163,45,64,37,148,37,121,64,207,77,50,60,21,50,59,127,74,148,60,106,51,259,351,114,79,51,39,72,79,305,150,190,57,45,71,172,43,24,79,38,480,375,70,23,56,204,32];
Surgeon = [3,6,5,6,3,5,6,5,1,5,2,2,1,10,5,1,2,6,8,1,4,3,8,1,12,1,6,1,4,6,6,1,5,5,5,1,11,3,3,4,3,1,6,6,6,2,8,6,4,3,6,10,2,5,6,6,4,6,4,4,9,5,8,4,4,3,5,1,4,8,9,6,7,7,3,8,2,6,6,2,10,1,5,6,2,1,1,6,8,5,8,3,1,1,9,1,3,6,4,13,3,3,4,3,6,4,6,1,5,5,1,1,2,5,3,5,11,5,7,1,5,2,4,6,5,7,11,6,7,1,1,3];
BlockAvailability = [[[0,1],[1,1],[0,0]],[[1,0],[1,1],[0,0]],[[1,0],[0,0],[0,0]],[[1,0],[0,0],[0,0]],[[0,1],[0,0],[0,1]],[[0,0],[0,0],[0,0]]];
SurgeonAvailability = [[[1,1],[1,1],[1,1],[1,1],[1,1],[1,1]],[[1,1],[1,1],[1,1],[1,1],[1,1],[1,1]],[[1,1],[1,1],[1,1],[1,1],[1,1],[1,1]],[[1,1],[1,1],[1,1],[1,1],[1,1],[1,1]],[[1,1],[1,1],[1,1],[1,1],[1,1],[1,1]],[[1,1],[1,1],[1,1],[1,1],[1,1],[1,1]],[[1,1],[1,1],[1,1],[1,1],[1,1],[1,1]],[[1,1],[1,1],[1,1],[1,1],[1,1],[1,1]],[[1,1],[1,1],[1,1],[1,1],[1,1],[1,1]],[[1,1],[1,1],[1,1],[1,1],[1,1],[1,1]],[[1,1],[1,1],[1,1],[1,1],[1,1],[1,1]],[[1,1],[1,1],[1,1],[1,1],[1,1],[1,1]],[[1,1],[1,1],[1,1],[1,1],[1,1],[1,1]],[[1,1],[1,1],[1,1],[1,1],[1,1],[1,1]],[[1,1],[1,1],[1,1],[1,1],[1,1],[1,1]],[[1,1],[1,1],[1,1],[1,1],[1,1],[1,1]],[[1,1],[1,1],[1,1],[1,1],[1,1],[1,1]]];
